data;

set YEARS := 1 2 3 4 5;
set MINES := 1 2 3 4;

param royalties :=
    1   5e6
    2   4e6
    3   4e6
    4   5e6 ;

param capacity :=
    1   2e6
    2   2.5e6
    3   1.3e6
    4   3e6 ;

param quality :=
    1   1
    2   0.7
    3   1.5
    4   0.5 ;

param target :=
    1   0.9
    2   0.8
    3   1.2
    4   0.6
    5   1 ;

param max_mines := 3;
param price := 10;